% Generado automaticamente desde C:/Users/andres/Desktop/SEPTIMO SEMESTRE/ADAII/proyecto_final/Proyecto-Optimizacion-ADA2/BateriaPruebas_2025_2_P2/Prueba32.txt

n = 20;
m = 5;
ct = 35.0;
maxMovs = 25.0;
v = [0.419, 0.52, 0.526, 0.647, 0.801];
p = [3, 4, 4, 7, 2];
s = [| 0, 2, 1 | 1, 3, 0 | 4, 0, 0 | 2, 1, 4 | 1, 1, 0 |];
